NAME : cgl_38.3887.tour
COMMENT : Length = 3887
COMMENT : Found by LKH-3 [Keld Helsgaun] Thu Jun 26 21:26:48 2025
TYPE : TOUR
DIMENSION : 39
TOUR_SECTION
10
20
25
1
2
39
3
5
6
4
37
38
31
7
32
12
28
26
23
17
13
27
21
14
36
34
30
9
8
29
16
22
33
35
11
24
15
18
19
-1
EOF
